assets/logs/16_8x8_clingo/16_8x8_clingo.solution.log

---------------------------------
| 49|  0|  0| 23|  4| 19|  0| 14|
---------------------------------
|  3| 25| 51| 45| 18| 12|  2| 17|
---------------------------------
| 53| 47|  1|  6| 21| 22| 16| 10|
---------------------------------
| 27|  5|  0| 20| 43|  8| 15| 24|
---------------------------------
| 52| 38| 29|  7|  0|  0|  0| 39|
---------------------------------
| 31| 44| 50| 36| 35| 41| 26| 13|
---------------------------------
| 40| 34| 33| 46|  9| 30| 37|  0|
---------------------------------
|  0| 48| 42| 32|  0|  0| 11| 28|
---------------------------------

| n = 8 | k = 10 | coverage = 62, 96.875%
 Time 300.0
 Name 16_8x8_clingo

